proyfinal/src/viki/013/experimentInOfficeAgust.take6.output/6e8aed38-3a67-4c99-aff8-9c1ae3316eb9.als.dat
{'cnf.clauses': '118081',
 'cnf.totvars': '69608',
 'conflict literals': '94',
 'conflicts': '29',
 'decisions': '7175',
 'memused.mb': '15.35',
 'outcome': 'UNSAT',
 'propagations': '31703',
 'restarts': '1',
 'solver.msecs': 27,
 'task.msecs': 85}
