proyfinal/src/viki/013/experimentInOfficeAgust.take6.output/6e8aed38-3a67-4c99-aff8-9c1ae3316eb9.als.out
Reading from standard input... Use '--help' for help.
============================[ Problem Statistics ]=============================
|                                                                             |
|  Number of variables:         69608                                         |
|  Number of clauses:          118081                                         |
|  Parse time:                   0.02 s                                       |
|                                                                             |
============================[ Search Statistics ]==============================
| Conflicts |          ORIGINAL         |          LEARNT          | Progress |
|           |    Vars  Clauses Literals |    Limit  Clauses Lit/Cl |          |
===============================================================================
===============================================================================
restarts              : 1
conflicts             : 29             (1048 /sec)
decisions             : 7175           (0.00 % random) (259315 /sec)
propagations          : 31703          (1145795 /sec)
conflict literals     : 94             (0.00 % deleted)
Memory used           : 15.35 MB
CPU time              : 0.027669 s

UNSATISFIABLE
